NAME : portcgen-27-29
COMMENT : portcgen N=27, seed=29
TYPE : TSP
DIMENSION : 27
EDGE_WEIGHT_TYPE : EUC_2D
NODE_COORD_SECTION
1 -247783 -168633
2 -16452 440401
3 413545 -32720
4 220495 -80744
5 -130218 -90378
6 -228043 81984
7 -287608 -361827
8 -38933 -41002
9 58189 -108035
10 -263458 -263161
11 -306862 132948
12 207975 -61803
13 113332 358505
14 128707 89014
15 178369 315628
16 -21299 163542
17 -52144 -146627
18 -109893 -9767
19 -122612 51788
20 69931 134241
21 86257 476408
22 -330163 140671
23 -7774 4174
24 265369 219596
25 265037 -87848
26 105251 -4232
27 210222 145887
